experiments/sat_smt/run/sat-r/results/freya.res
solved=true
solvingTime=49.817230224609375
nActions=13