experiments/sat_smt/run/sat-r/results/freya.out
Timesteps: 1
s UNSATISFIABLE
real 0.12
user 0.01
sys 0.00
Timesteps: 2
s UNSATISFIABLE
real 0.11
user 0.03
sys 0.00
Timesteps: 3
s UNSATISFIABLE
real 0.26
user 0.10
sys 0.00
Timesteps: 4
s UNSATISFIABLE
real 0.30
user 0.21
sys 0.01
Timesteps: 5
s UNSATISFIABLE
real 0.64
user 0.55
sys 0.00
Timesteps: 6
s UNSATISFIABLE
real 1.30
user 1.19
sys 0.01
Timesteps: 7
s UNSATISFIABLE
real 3.30
user 3.16
sys 0.01
Timesteps: 8
s UNSATISFIABLE
real 5.14
user 4.98
sys 0.02
Timesteps: 9
s UNSATISFIABLE
real 6.07
user 5.87
sys 0.02
Timesteps: 10
s UNSATISFIABLE
real 6.60
user 6.40
sys 0.01
Timesteps: 11
s UNSATISFIABLE
real 8.48
user 8.23
sys 0.03
Timesteps: 12
s UNSATISFIABLE
real 8.36
user 8.11
sys 0.02
Timesteps: 13
s SATISFIABLE
real 8.87
user 8.61
sys 0.03
